NAME: renB50
TYPE: TSP
COMMENT: 50 random cities (seed : 2, range: 10000)
DIMENSION: 50
EDGE_WEIGHT_TYPE : EUC_2D
NODE_COORD_SECTION
1 6108 1372
2 4040 5067
3 8389 3350
4 4606 9719
5 9847 5068
6 94 1086
7 5434 6614
8 8514 416
9 9067 8399
10 4530 1231
11 6678 7647
12 8599 7642
13 2256 6214
14 3562 635
15 5553 5362
16 9179 26
17 5807 7150
18 8430 3324
19 8997 2615
20 367 8588
21 402 155
22 358 8419
23 3342 6240
24 4134 4583
25 7336 8767
26 9759 7966
27 7898 3531
28 2899 509
29 7758 6402
30 2070 1473
31 6314 62
32 5694 1113
33 5734 2856
34 4538 6126
35 9694 5947
36 7791 5136
37 6435 9888
38 1133 2271
39 2508 2523
40 1105 2419
41 1131 193
42 1572 5592
43 4746 6965
44 8608 1337
45 835 7102
46 8786 3735
47 9903 2949
48 7643 8167
49 1670 2464
50 9296 166
EOF
